solution status: gap limit reached
objective value:                          34202.11718
y#9                                                 1 	(obj:5700)
y#10                                                1 	(obj:5700)
y#24                                                1 	(obj:5700)
y#27                                                1 	(obj:5700)
y#35                                                1 	(obj:5700)
y#42                                                1 	(obj:5700)
x#1#10                                              1 	(obj:0.05899)
x#2#10                                              1 	(obj:0.00578)
x#3#10                                              1 	(obj:0.01003)
x#4#24                                              1 	(obj:0.01513)
x#5#24                                              1 	(obj:0.09911)
x#6#35                                              1 	(obj:0.01853)
x#7#27                                              1 	(obj:0.00561)
x#8#24                                              1 	(obj:0.02839)
x#9#10                                              1 	(obj:0.04471)
x#10#27                                             1 	(obj:0.02329)
x#11#9                                              1 	(obj:0.0187)
x#12#9                                              1 	(obj:0.05015)
x#13#42                                             1 	(obj:0.01156)
x#14#24                                             1 	(obj:0.02618)
x#15#9                                              1 	(obj:0.01921)
x#16#42                                             1 	(obj:0.03145)
x#17#35                                             1 	(obj:0.04896)
x#18#42                                             1 	(obj:0.06103)
x#19#24                                             1 	(obj:0.00612)
x#20#24                                             1 	(obj:0.01394)
x#21#42                                             1 	(obj:0.01224)
x#22#10                                             1 	(obj:0.05321)
x#23#42                                             1 	(obj:0.00782)
x#24#10                                             1 	(obj:0.0442)
x#25#35                                             1 	(obj:0.00289)
x#26#9                                              1 	(obj:0.017)
x#27#42                                             1 	(obj:0.04624)
x#28#9                                              1 	(obj:0.01955)
x#29#27                                             1 	(obj:0.02635)
x#30#35                                             1 	(obj:0.01802)
x#31#24                                             1 	(obj:0.05287)
x#32#42                                             1 	(obj:0.1139)
x#33#9                                              1 	(obj:0.02958)
x#34#27                                             1 	(obj:0.01547)
x#35#35                                             1 	(obj:0.01972)
x#36#24                                             1 	(obj:0.02601)
x#37#35                                             1 	(obj:0.02635)
x#38#42                                             1 	(obj:0.07004)
x#39#27                                             1 	(obj:0.07361)
x#40#10                                             1 	(obj:0.02414)
x#41#9                                              1 	(obj:0.01037)
x#42#35                                             1 	(obj:0.00561)
x#43#9                                              1 	(obj:0.00782)
x#44#35                                             1 	(obj:0.02771)
x#45#27                                             1 	(obj:0.03791)
x#46#35                                             1 	(obj:0.00357)
x#47#27                                             1 	(obj:0.04828)
x#48#10                                             1 	(obj:0.02414)
x#49#27                                             1 	(obj:0.03655)
x#50#27                                             1 	(obj:0.06579)
x#51#42                                             1 	(obj:0.00153)
x#52#24                                             1 	(obj:0.02907)
x#53#10                                             1 	(obj:0.01139)
x#54#42                                             1 	(obj:0.08993)
x#55#27                                             1 	(obj:0.01853)
x#56#24                                             1 	(obj:0.05185)
x#57#27                                             1 	(obj:0.01377)
x#58#10                                             1 	(obj:0.02329)
x#59#10                                             1 	(obj:0.02635)
x#60#9                                              1 	(obj:0.02414)
x#61#27                                             1 	(obj:0.0238)
x#62#9                                              1 	(obj:0.02635)
x#63#9                                              1 	(obj:0.01989)
x#64#9                                              1 	(obj:0.02703)
x#65#42                                             1 	(obj:0.08007)
x#66#35                                             1 	(obj:0.01496)
x#67#24                                             1 	(obj:0.01649)
x#68#35                                             1 	(obj:0.01785)
x#69#42                                             1 	(obj:0.03417)
x#70#10                                             1 	(obj:0.00289)
